SYSTEM is ZnO Slabs
1.0
6.578206062399999610e+00 0.000000000000000000e+00 0.000000000000000000e+00
-3.289103031199999805e+00 5.696893561199999567e+00 0.000000000000000000e+00
0.000000000000000000e+00 0.000000000000000000e+00 6.541479372970000838e+01
Zn O
64 64
Cartesian
1.644553184999999917e+00 9.494813079999999683e-01 2.650501966000000209e+00
4.933656216199999278e+00 9.494813079999999683e-01 2.650501966000000209e+00
1.669400000015031083e-06 3.797928088599999974e+00 2.650501966000000209e+00
3.289104700599999820e+00 3.797928088599999974e+00 2.650501966000000209e+00
1.644553184999999917e+00 9.494813079999999683e-01 7.957322358599999923e+00
4.933656216199999278e+00 9.494813079999999683e-01 7.957322358599999923e+00
1.669400000015031083e-06 3.797928088599999974e+00 7.957322358599999923e+00
3.289104700599999820e+00 3.797928088599999974e+00 7.957322358599999923e+00
1.644553184999999917e+00 9.494813079999999683e-01 1.326414275119999964e+01
4.933656216199999278e+00 9.494813079999999683e-01 1.326414275119999964e+01
1.669400000015031083e-06 3.797928088599999974e+00 1.326414275119999964e+01
3.289104700599999820e+00 3.797928088599999974e+00 1.326414275119999964e+01
1.644553184999999917e+00 9.494813079999999683e-01 1.857096314380000024e+01
4.933656216199999278e+00 9.494813079999999683e-01 1.857096314380000024e+01
1.669400000015031083e-06 3.797928088599999974e+00 1.857096314380000024e+01
3.289104700599999820e+00 3.797928088599999974e+00 1.857096314380000024e+01
1.644553184999999917e+00 9.494813079999999683e-01 2.387778353639999906e+01
4.933656216199999278e+00 9.494813079999999683e-01 2.387778353639999906e+01
1.669400000015031083e-06 3.797928088599999974e+00 2.387778353639999906e+01
3.289104700599999820e+00 3.797928088599999974e+00 2.387778353639999906e+01
1.644553184999999917e+00 9.494813079999999683e-01 2.918460392899999789e+01
4.933656216199999278e+00 9.494813079999999683e-01 2.918460392899999789e+01
1.669400000015031083e-06 3.797928088599999974e+00 2.918460392899999789e+01
3.289104700599999820e+00 3.797928088599999974e+00 2.918460392899999789e+01
1.644553184999999917e+00 9.494813079999999683e-01 3.449142432160000027e+01
4.933656216199999278e+00 9.494813079999999683e-01 3.449142432160000027e+01
1.669400000015031083e-06 3.797928088599999974e+00 3.449142432160000027e+01
3.289104700599999820e+00 3.797928088599999974e+00 3.449142432160000027e+01
1.644553184999999917e+00 9.494813079999999683e-01 3.979824471419999554e+01
4.933656216199999278e+00 9.494813079999999683e-01 3.979824471419999554e+01
1.669400000015031083e-06 3.797928088599999974e+00 3.979824471419999554e+01
3.289104700599999820e+00 3.797928088599999974e+00 3.979824471419999554e+01
0.000000000000000000e+00 1.898965478000000040e+00 5.303912162999999680e+00
3.289103031199999805e+00 1.898965478000000040e+00 5.303912162999999680e+00
-1.644551515599999902e+00 4.747412258599999824e+00 5.303912162999999680e+00
1.644551515599999902e+00 4.747412258599999824e+00 5.303912162999999680e+00
0.000000000000000000e+00 1.898965478000000040e+00 1.061073255559999851e+01
3.289103031199999805e+00 1.898965478000000040e+00 1.061073255559999851e+01
-1.644551515599999902e+00 4.747412258599999824e+00 1.061073255559999851e+01
1.644551515599999902e+00 4.747412258599999824e+00 1.061073255559999851e+01
0.000000000000000000e+00 1.898965478000000040e+00 1.591755294819999911e+01
3.289103031199999805e+00 1.898965478000000040e+00 1.591755294819999911e+01
-1.644551515599999902e+00 4.747412258599999824e+00 1.591755294819999911e+01
1.644551515599999902e+00 4.747412258599999824e+00 1.591755294819999911e+01
0.000000000000000000e+00 1.898965478000000040e+00 2.122437334079999971e+01
3.289103031199999805e+00 1.898965478000000040e+00 2.122437334079999971e+01
-1.644551515599999902e+00 4.747412258599999824e+00 2.122437334079999971e+01
1.644551515599999902e+00 4.747412258599999824e+00 2.122437334079999971e+01
0.000000000000000000e+00 1.898965478000000040e+00 2.653119373339999854e+01
3.289103031199999805e+00 1.898965478000000040e+00 2.653119373339999854e+01
-1.644551515599999902e+00 4.747412258599999824e+00 2.653119373339999854e+01
1.644551515599999902e+00 4.747412258599999824e+00 2.653119373339999854e+01
0.000000000000000000e+00 1.898965478000000040e+00 3.183801412599999736e+01
3.289103031199999805e+00 1.898965478000000040e+00 3.183801412599999736e+01
-1.644551515599999902e+00 4.747412258599999824e+00 3.183801412599999736e+01
1.644551515599999902e+00 4.747412258599999824e+00 3.183801412599999736e+01
0.000000000000000000e+00 1.898965478000000040e+00 3.714483451859999974e+01
3.289103031199999805e+00 1.898965478000000040e+00 3.714483451859999974e+01
-1.644551515599999902e+00 4.747412258599999824e+00 3.714483451859999974e+01
1.644551515599999902e+00 4.747412258599999824e+00 3.714483451859999974e+01
0.000000000000000000e+00 1.898965478000000040e+00 4.245165491119999501e+01
3.289103031199999805e+00 1.898965478000000040e+00 4.245165491119999501e+01
-1.644551515599999902e+00 4.747412258599999824e+00 4.245165491119999501e+01
1.644551515599999902e+00 4.747412258599999824e+00 4.245165491119999501e+01
-1.644553184999999917e+00 9.494813079999999683e-01 5.944901883600000048e+00
1.644549846199999887e+00 9.494813079999999683e-01 5.944901883600000048e+00
-3.289104700599999820e+00 3.797928088599999974e+00 5.944901883600000048e+00
-1.669400000015031083e-06 3.797928088599999974e+00 5.944901883600000048e+00
-1.644553184999999917e+00 9.494813079999999683e-01 1.125172227619999887e+01
1.644549846199999887e+00 9.494813079999999683e-01 1.125172227619999887e+01
-3.289104700599999820e+00 3.797928088599999974e+00 1.125172227619999887e+01
-1.669400000015031083e-06 3.797928088599999974e+00 1.125172227619999887e+01
-1.644553184999999917e+00 9.494813079999999683e-01 1.655854266880000125e+01
1.644549846199999887e+00 9.494813079999999683e-01 1.655854266880000125e+01
-3.289104700599999820e+00 3.797928088599999974e+00 1.655854266880000125e+01
-1.669400000015031083e-06 3.797928088599999974e+00 1.655854266880000125e+01
-1.644553184999999917e+00 9.494813079999999683e-01 2.186536306140000008e+01
1.644549846199999887e+00 9.494813079999999683e-01 2.186536306140000008e+01
-3.289104700599999820e+00 3.797928088599999974e+00 2.186536306140000008e+01
-1.669400000015031083e-06 3.797928088599999974e+00 2.186536306140000008e+01
-1.644553184999999917e+00 9.494813079999999683e-01 2.717218345399999890e+01
1.644549846199999887e+00 9.494813079999999683e-01 2.717218345399999890e+01
-3.289104700599999820e+00 3.797928088599999974e+00 2.717218345399999890e+01
-1.669400000015031083e-06 3.797928088599999974e+00 2.717218345399999890e+01
-1.644553184999999917e+00 9.494813079999999683e-01 3.247900384660000128e+01
1.644549846199999887e+00 9.494813079999999683e-01 3.247900384660000128e+01
-3.289104700599999820e+00 3.797928088599999974e+00 3.247900384660000128e+01
-1.669400000015031083e-06 3.797928088599999974e+00 3.247900384660000128e+01
-1.644553184999999917e+00 9.494813079999999683e-01 3.778582423919999655e+01
1.644549846199999887e+00 9.494813079999999683e-01 3.778582423919999655e+01
-3.289104700599999820e+00 3.797928088599999974e+00 3.778582423919999655e+01
-1.669400000015031083e-06 3.797928088599999974e+00 3.778582423919999655e+01
-1.644553184999999917e+00 9.494813079999999683e-01 4.309264463179999893e+01
1.644549846199999887e+00 9.494813079999999683e-01 4.309264463179999893e+01
-3.289104700599999820e+00 3.797928088599999974e+00 4.309264463179999893e+01
-1.669400000015031083e-06 3.797928088599999974e+00 4.309264463179999893e+01
0.000000000000000000e+00 1.898965478000000040e+00 3.291491746999999801e+00
3.289103031199999805e+00 1.898965478000000040e+00 3.291491746999999801e+00
-1.644551515599999902e+00 4.747412258599999824e+00 3.291491746999999801e+00
1.644551515599999902e+00 4.747412258599999824e+00 3.291491746999999801e+00
0.000000000000000000e+00 1.898965478000000040e+00 8.598312139599999071e+00
3.289103031199999805e+00 1.898965478000000040e+00 8.598312139599999071e+00
-1.644551515599999902e+00 4.747412258599999824e+00 8.598312139599999071e+00
1.644551515599999902e+00 4.747412258599999824e+00 8.598312139599999071e+00
0.000000000000000000e+00 1.898965478000000040e+00 1.390513253219999967e+01
3.289103031199999805e+00 1.898965478000000040e+00 1.390513253219999967e+01
-1.644551515599999902e+00 4.747412258599999824e+00 1.390513253219999967e+01
1.644551515599999902e+00 4.747412258599999824e+00 1.390513253219999967e+01
0.000000000000000000e+00 1.898965478000000040e+00 1.921195292479999850e+01
3.289103031199999805e+00 1.898965478000000040e+00 1.921195292479999850e+01
-1.644551515599999902e+00 4.747412258599999824e+00 1.921195292479999850e+01
1.644551515599999902e+00 4.747412258599999824e+00 1.921195292479999850e+01
0.000000000000000000e+00 1.898965478000000040e+00 2.451877331739999732e+01
3.289103031199999805e+00 1.898965478000000040e+00 2.451877331739999732e+01
-1.644551515599999902e+00 4.747412258599999824e+00 2.451877331739999732e+01
1.644551515599999902e+00 4.747412258599999824e+00 2.451877331739999732e+01
0.000000000000000000e+00 1.898965478000000040e+00 2.982559370999999615e+01
3.289103031199999805e+00 1.898965478000000040e+00 2.982559370999999615e+01
-1.644551515599999902e+00 4.747412258599999824e+00 2.982559370999999615e+01
1.644551515599999902e+00 4.747412258599999824e+00 2.982559370999999615e+01
0.000000000000000000e+00 1.898965478000000040e+00 3.513241410260000208e+01
3.289103031199999805e+00 1.898965478000000040e+00 3.513241410260000208e+01
-1.644551515599999902e+00 4.747412258599999824e+00 3.513241410260000208e+01
1.644551515599999902e+00 4.747412258599999824e+00 3.513241410260000208e+01
0.000000000000000000e+00 1.898965478000000040e+00 4.043923449519999735e+01
3.289103031199999805e+00 1.898965478000000040e+00 4.043923449519999735e+01
-1.644551515599999902e+00 4.747412258599999824e+00 4.043923449519999735e+01
1.644551515599999902e+00 4.747412258599999824e+00 4.043923449519999735e+01
