SYSTEM is ZnO Slabs
1.0
0.000000000000000000e+00 0.000000000000000000e+00 1.061364078519999943e+01
-3.289103031199999805e+00 5.696893561199999567e+00 0.000000000000000000e+00
2.980096364039999912e+01 0.000000000000000000e+00 0.000000000000000000e+00
Zn O
24 24
Cartesian
1.644553184999999917e+00 9.494813079999999683e-01 2.650501966000000209e+00
1.644553184999999917e+00 9.494813079999999683e-01 7.957322358599999923e+00
1.669400000015031083e-06 3.797928088599999974e+00 2.650501966000000209e+00
1.669400000015031083e-06 3.797928088599999974e+00 7.957322358599999923e+00
4.933656216199999278e+00 9.494813079999999683e-01 2.650501966000000209e+00
4.933656216199999278e+00 9.494813079999999683e-01 7.957322358599999923e+00
3.289104700599999820e+00 3.797928088599999974e+00 2.650501966000000209e+00
3.289104700599999820e+00 3.797928088599999974e+00 7.957322358599999923e+00
8.222759247399999083e+00 9.494813079999999683e-01 2.650501966000000209e+00
8.222759247399999083e+00 9.494813079999999683e-01 7.957322358599999923e+00
6.578207731799999181e+00 3.797928088599999974e+00 2.650501966000000209e+00
6.578207731799999181e+00 3.797928088599999974e+00 7.957322358599999923e+00
0.000000000000000000e+00 1.898965478000000040e+00 5.303912162999999680e+00
0.000000000000000000e+00 1.898965478000000040e+00 1.061073255559999851e+01
-1.644551515599999902e+00 4.747412258599999824e+00 5.303912162999999680e+00
-1.644551515599999902e+00 4.747412258599999824e+00 1.061073255559999851e+01
3.289103031199999805e+00 1.898965478000000040e+00 5.303912162999999680e+00
3.289103031199999805e+00 1.898965478000000040e+00 1.061073255559999851e+01
1.644551515599999902e+00 4.747412258599999824e+00 5.303912162999999680e+00
1.644551515599999902e+00 4.747412258599999824e+00 1.061073255559999851e+01
6.578206062399999610e+00 1.898965478000000040e+00 5.303912162999999680e+00
6.578206062399999610e+00 1.898965478000000040e+00 1.061073255559999851e+01
4.933654546799999707e+00 4.747412258599999824e+00 5.303912162999999680e+00
4.933654546799999707e+00 4.747412258599999824e+00 1.061073255559999851e+01
1.644549846199999887e+00 9.494813079999999683e-01 6.380814910000000006e-01
1.644549846199999887e+00 9.494813079999999683e-01 5.944901883600000048e+00
-1.669400000015031083e-06 3.797928088599999974e+00 6.380814910000000006e-01
-1.669400000015031083e-06 3.797928088599999974e+00 5.944901883600000048e+00
4.933652877400000136e+00 9.494813079999999683e-01 6.380814910000000006e-01
4.933652877400000136e+00 9.494813079999999683e-01 5.944901883600000048e+00
3.289101361799999790e+00 3.797928088599999974e+00 6.380814910000000006e-01
3.289101361799999790e+00 3.797928088599999974e+00 5.944901883600000048e+00
8.222755908599999941e+00 9.494813079999999683e-01 6.380814910000000006e-01
8.222755908599999941e+00 9.494813079999999683e-01 5.944901883600000048e+00
6.578204393000000039e+00 3.797928088599999974e+00 6.380814910000000006e-01
6.578204393000000039e+00 3.797928088599999974e+00 5.944901883600000048e+00
0.000000000000000000e+00 1.898965478000000040e+00 3.291491746999999801e+00
0.000000000000000000e+00 1.898965478000000040e+00 8.598312139599999071e+00
-1.644551515599999902e+00 4.747412258599999824e+00 3.291491746999999801e+00
-1.644551515599999902e+00 4.747412258599999824e+00 8.598312139599999071e+00
3.289103031199999805e+00 1.898965478000000040e+00 3.291491746999999801e+00
3.289103031199999805e+00 1.898965478000000040e+00 8.598312139599999071e+00
1.644551515599999902e+00 4.747412258599999824e+00 3.291491746999999801e+00
1.644551515599999902e+00 4.747412258599999824e+00 8.598312139599999071e+00
6.578206062399999610e+00 1.898965478000000040e+00 3.291491746999999801e+00
6.578206062399999610e+00 1.898965478000000040e+00 8.598312139599999071e+00
4.933654546799999707e+00 4.747412258599999824e+00 3.291491746999999801e+00
4.933654546799999707e+00 4.747412258599999824e+00 8.598312139599999071e+00
