SYSTEM is ZnO Slabs
1.0
0.000000000000000000e+00 0.000000000000000000e+00 1.061364078519999943e+01
-3.289103031199999805e+00 5.696893561199999567e+00 0.000000000000000000e+00
5.118013334319999785e+01 0.000000000000000000e+00 0.000000000000000000e+00
Zn O
76 76
Cartesian
1.644553184999999917e+00 9.494813079999999683e-01 2.650501966000000209e+00
1.644553184999999917e+00 9.494813079999999683e-01 7.957322358599999923e+00
1.669400000015031083e-06 3.797928088599999974e+00 2.650501966000000209e+00
1.669400000015031083e-06 3.797928088599999974e+00 7.957322358599999923e+00
4.933656216199999278e+00 9.494813079999999683e-01 2.650501966000000209e+00
4.933656216199999278e+00 9.494813079999999683e-01 7.957322358599999923e+00
3.289104700599999820e+00 3.797928088599999974e+00 2.650501966000000209e+00
3.289104700599999820e+00 3.797928088599999974e+00 7.957322358599999923e+00
8.222759247399999083e+00 9.494813079999999683e-01 2.650501966000000209e+00
8.222759247399999083e+00 9.494813079999999683e-01 7.957322358599999923e+00
6.578207731799999181e+00 3.797928088599999974e+00 2.650501966000000209e+00
6.578207731799999181e+00 3.797928088599999974e+00 7.957322358599999923e+00
1.151186227859999889e+01 9.494813079999999683e-01 2.650501966000000209e+00
1.151186227859999889e+01 9.494813079999999683e-01 7.957322358599999923e+00
9.867310762999998985e+00 3.797928088599999974e+00 2.650501966000000209e+00
9.867310762999998985e+00 3.797928088599999974e+00 7.957322358599999923e+00
1.480096530979999869e+01 9.494813079999999683e-01 2.650501966000000209e+00
1.480096530979999869e+01 9.494813079999999683e-01 7.957322358599999923e+00
1.315641379419999879e+01 3.797928088599999974e+00 2.650501966000000209e+00
1.315641379419999879e+01 3.797928088599999974e+00 7.957322358599999923e+00
1.809006834099999850e+01 9.494813079999999683e-01 2.650501966000000209e+00
1.809006834099999850e+01 9.494813079999999683e-01 7.957322358599999923e+00
1.644551682539999860e+01 3.797928088599999974e+00 2.650501966000000209e+00
1.644551682539999860e+01 3.797928088599999974e+00 7.957322358599999923e+00
2.137917137219999830e+01 9.494813079999999683e-01 2.650501966000000209e+00
2.137917137219999830e+01 9.494813079999999683e-01 7.957322358599999923e+00
1.973461985659999840e+01 3.797928088599999974e+00 2.650501966000000209e+00
1.973461985659999840e+01 3.797928088599999974e+00 7.957322358599999923e+00
2.466827440339999811e+01 9.494813079999999683e-01 2.650501966000000209e+00
2.466827440339999811e+01 9.494813079999999683e-01 7.957322358599999923e+00
2.302372288779999820e+01 3.797928088599999974e+00 2.650501966000000209e+00
2.302372288779999820e+01 3.797928088599999974e+00 7.957322358599999923e+00
2.795737743459999791e+01 9.494813079999999683e-01 2.650501966000000209e+00
2.795737743459999791e+01 9.494813079999999683e-01 7.957322358599999923e+00
2.631282591899999801e+01 3.797928088599999974e+00 2.650501966000000209e+00
2.631282591899999801e+01 3.797928088599999974e+00 7.957322358599999923e+00
3.124648046579999772e+01 9.494813079999999683e-01 2.650501966000000209e+00
3.124648046579999772e+01 9.494813079999999683e-01 7.957322358599999923e+00
2.960192895019999781e+01 3.797928088599999974e+00 2.650501966000000209e+00
2.960192895019999781e+01 3.797928088599999974e+00 7.957322358599999923e+00
0.000000000000000000e+00 1.898965478000000040e+00 5.303912162999999680e+00
0.000000000000000000e+00 1.898965478000000040e+00 1.061073255559999851e+01
-1.644551515599999902e+00 4.747412258599999824e+00 5.303912162999999680e+00
-1.644551515599999902e+00 4.747412258599999824e+00 1.061073255559999851e+01
3.289103031199999805e+00 1.898965478000000040e+00 5.303912162999999680e+00
3.289103031199999805e+00 1.898965478000000040e+00 1.061073255559999851e+01
1.644551515599999902e+00 4.747412258599999824e+00 5.303912162999999680e+00
1.644551515599999902e+00 4.747412258599999824e+00 1.061073255559999851e+01
6.578206062399999610e+00 1.898965478000000040e+00 5.303912162999999680e+00
6.578206062399999610e+00 1.898965478000000040e+00 1.061073255559999851e+01
4.933654546799999707e+00 4.747412258599999824e+00 5.303912162999999680e+00
4.933654546799999707e+00 4.747412258599999824e+00 1.061073255559999851e+01
9.867309093599999414e+00 1.898965478000000040e+00 5.303912162999999680e+00
9.867309093599999414e+00 1.898965478000000040e+00 1.061073255559999851e+01
8.222757577999999512e+00 4.747412258599999824e+00 5.303912162999999680e+00
8.222757577999999512e+00 4.747412258599999824e+00 1.061073255559999851e+01
1.315641212479999922e+01 1.898965478000000040e+00 5.303912162999999680e+00
1.315641212479999922e+01 1.898965478000000040e+00 1.061073255559999851e+01
1.151186060919999932e+01 4.747412258599999824e+00 5.303912162999999680e+00
1.151186060919999932e+01 4.747412258599999824e+00 1.061073255559999851e+01
1.644551515599999902e+01 1.898965478000000040e+00 5.303912162999999680e+00
1.644551515599999902e+01 1.898965478000000040e+00 1.061073255559999851e+01
1.480096364039999912e+01 4.747412258599999824e+00 5.303912162999999680e+00
1.480096364039999912e+01 4.747412258599999824e+00 1.061073255559999851e+01
1.973461818719999883e+01 1.898965478000000040e+00 5.303912162999999680e+00
1.973461818719999883e+01 1.898965478000000040e+00 1.061073255559999851e+01
1.809006667159999893e+01 4.747412258599999824e+00 5.303912162999999680e+00
1.809006667159999893e+01 4.747412258599999824e+00 1.061073255559999851e+01
2.302372121839999863e+01 1.898965478000000040e+00 5.303912162999999680e+00
2.302372121839999863e+01 1.898965478000000040e+00 1.061073255559999851e+01
2.137916970279999873e+01 4.747412258599999824e+00 5.303912162999999680e+00
2.137916970279999873e+01 4.747412258599999824e+00 1.061073255559999851e+01
2.631282424959999844e+01 1.898965478000000040e+00 5.303912162999999680e+00
2.631282424959999844e+01 1.898965478000000040e+00 1.061073255559999851e+01
2.466827273399999854e+01 4.747412258599999824e+00 5.303912162999999680e+00
2.466827273399999854e+01 4.747412258599999824e+00 1.061073255559999851e+01
1.644549846199999887e+00 9.494813079999999683e-01 6.380814910000000006e-01
1.644549846199999887e+00 9.494813079999999683e-01 5.944901883600000048e+00
-1.669400000015031083e-06 3.797928088599999974e+00 6.380814910000000006e-01
-1.669400000015031083e-06 3.797928088599999974e+00 5.944901883600000048e+00
4.933652877400000136e+00 9.494813079999999683e-01 6.380814910000000006e-01
4.933652877400000136e+00 9.494813079999999683e-01 5.944901883600000048e+00
3.289101361799999790e+00 3.797928088599999974e+00 6.380814910000000006e-01
3.289101361799999790e+00 3.797928088599999974e+00 5.944901883600000048e+00
8.222755908599999941e+00 9.494813079999999683e-01 6.380814910000000006e-01
8.222755908599999941e+00 9.494813079999999683e-01 5.944901883600000048e+00
6.578204393000000039e+00 3.797928088599999974e+00 6.380814910000000006e-01
6.578204393000000039e+00 3.797928088599999974e+00 5.944901883600000048e+00
1.151185893979999975e+01 9.494813079999999683e-01 6.380814910000000006e-01
1.151185893979999975e+01 9.494813079999999683e-01 5.944901883600000048e+00
9.867307424199999843e+00 3.797928088599999974e+00 6.380814910000000006e-01
9.867307424199999843e+00 3.797928088599999974e+00 5.944901883600000048e+00
1.480096197099999955e+01 9.494813079999999683e-01 6.380814910000000006e-01
1.480096197099999955e+01 9.494813079999999683e-01 5.944901883600000048e+00
1.315641045539999965e+01 3.797928088599999974e+00 6.380814910000000006e-01
1.315641045539999965e+01 3.797928088599999974e+00 5.944901883600000048e+00
1.809006500219999936e+01 9.494813079999999683e-01 6.380814910000000006e-01
1.809006500219999936e+01 9.494813079999999683e-01 5.944901883600000048e+00
1.644551348659999945e+01 3.797928088599999974e+00 6.380814910000000006e-01
1.644551348659999945e+01 3.797928088599999974e+00 5.944901883600000048e+00
2.137916803339999916e+01 9.494813079999999683e-01 6.380814910000000006e-01
2.137916803339999916e+01 9.494813079999999683e-01 5.944901883600000048e+00
1.973461651779999926e+01 3.797928088599999974e+00 6.380814910000000006e-01
1.973461651779999926e+01 3.797928088599999974e+00 5.944901883600000048e+00
2.466827106459999897e+01 9.494813079999999683e-01 6.380814910000000006e-01
2.466827106459999897e+01 9.494813079999999683e-01 5.944901883600000048e+00
2.302371954899999906e+01 3.797928088599999974e+00 6.380814910000000006e-01
2.302371954899999906e+01 3.797928088599999974e+00 5.944901883600000048e+00
2.795737409579999877e+01 9.494813079999999683e-01 6.380814910000000006e-01
2.795737409579999877e+01 9.494813079999999683e-01 5.944901883600000048e+00
2.631282258019999887e+01 3.797928088599999974e+00 6.380814910000000006e-01
2.631282258019999887e+01 3.797928088599999974e+00 5.944901883600000048e+00
0.000000000000000000e+00 1.898965478000000040e+00 3.291491746999999801e+00
0.000000000000000000e+00 1.898965478000000040e+00 8.598312139599999071e+00
-1.644551515599999902e+00 4.747412258599999824e+00 3.291491746999999801e+00
-1.644551515599999902e+00 4.747412258599999824e+00 8.598312139599999071e+00
3.289103031199999805e+00 1.898965478000000040e+00 3.291491746999999801e+00
3.289103031199999805e+00 1.898965478000000040e+00 8.598312139599999071e+00
1.644551515599999902e+00 4.747412258599999824e+00 3.291491746999999801e+00
1.644551515599999902e+00 4.747412258599999824e+00 8.598312139599999071e+00
6.578206062399999610e+00 1.898965478000000040e+00 3.291491746999999801e+00
6.578206062399999610e+00 1.898965478000000040e+00 8.598312139599999071e+00
4.933654546799999707e+00 4.747412258599999824e+00 3.291491746999999801e+00
4.933654546799999707e+00 4.747412258599999824e+00 8.598312139599999071e+00
9.867309093599999414e+00 1.898965478000000040e+00 3.291491746999999801e+00
9.867309093599999414e+00 1.898965478000000040e+00 8.598312139599999071e+00
8.222757577999999512e+00 4.747412258599999824e+00 3.291491746999999801e+00
8.222757577999999512e+00 4.747412258599999824e+00 8.598312139599999071e+00
1.315641212479999922e+01 1.898965478000000040e+00 3.291491746999999801e+00
1.315641212479999922e+01 1.898965478000000040e+00 8.598312139599999071e+00
1.151186060919999932e+01 4.747412258599999824e+00 3.291491746999999801e+00
1.151186060919999932e+01 4.747412258599999824e+00 8.598312139599999071e+00
1.644551515599999902e+01 1.898965478000000040e+00 3.291491746999999801e+00
1.644551515599999902e+01 1.898965478000000040e+00 8.598312139599999071e+00
1.480096364039999912e+01 4.747412258599999824e+00 3.291491746999999801e+00
1.480096364039999912e+01 4.747412258599999824e+00 8.598312139599999071e+00
1.973461818719999883e+01 1.898965478000000040e+00 3.291491746999999801e+00
1.973461818719999883e+01 1.898965478000000040e+00 8.598312139599999071e+00
1.809006667159999893e+01 4.747412258599999824e+00 3.291491746999999801e+00
1.809006667159999893e+01 4.747412258599999824e+00 8.598312139599999071e+00
2.302372121839999863e+01 1.898965478000000040e+00 3.291491746999999801e+00
2.302372121839999863e+01 1.898965478000000040e+00 8.598312139599999071e+00
2.137916970279999873e+01 4.747412258599999824e+00 3.291491746999999801e+00
2.137916970279999873e+01 4.747412258599999824e+00 8.598312139599999071e+00
2.631282424959999844e+01 1.898965478000000040e+00 3.291491746999999801e+00
2.631282424959999844e+01 1.898965478000000040e+00 8.598312139599999071e+00
2.466827273399999854e+01 4.747412258599999824e+00 3.291491746999999801e+00
2.466827273399999854e+01 4.747412258599999824e+00 8.598312139599999071e+00
2.960192728079999824e+01 1.898965478000000040e+00 3.291491746999999801e+00
2.960192728079999824e+01 1.898965478000000040e+00 8.598312139599999071e+00
2.795737576519999834e+01 4.747412258599999824e+00 3.291491746999999801e+00
2.795737576519999834e+01 4.747412258599999824e+00 8.598312139599999071e+00
