SYSTEM is ZnO Slabs
1.0
0.000000000000000000e+00 0.000000000000000000e+00 1.061364078519999943e+01
-3.289103031199999805e+00 5.696893561199999567e+00 0.000000000000000000e+00
2.322275757799999951e+01 0.000000000000000000e+00 0.000000000000000000e+00
Zn O
8 8
Cartesian
1.644553184999999917e+00 9.494813079999999683e-01 2.650501966000000209e+00
1.644553184999999917e+00 9.494813079999999683e-01 7.957322358599999923e+00
1.669400000015031083e-06 3.797928088599999974e+00 2.650501966000000209e+00
1.669400000015031083e-06 3.797928088599999974e+00 7.957322358599999923e+00
0.000000000000000000e+00 1.898965478000000040e+00 5.303912162999999680e+00
0.000000000000000000e+00 1.898965478000000040e+00 1.061073255559999851e+01
-1.644551515599999902e+00 4.747412258599999824e+00 5.303912162999999680e+00
-1.644551515599999902e+00 4.747412258599999824e+00 1.061073255559999851e+01
1.644549846199999887e+00 9.494813079999999683e-01 6.380814910000000006e-01
1.644549846199999887e+00 9.494813079999999683e-01 5.944901883600000048e+00
-1.669400000015031083e-06 3.797928088599999974e+00 6.380814910000000006e-01
-1.669400000015031083e-06 3.797928088599999974e+00 5.944901883600000048e+00
0.000000000000000000e+00 1.898965478000000040e+00 3.291491746999999801e+00
0.000000000000000000e+00 1.898965478000000040e+00 8.598312139599999071e+00
-1.644551515599999902e+00 4.747412258599999824e+00 3.291491746999999801e+00
-1.644551515599999902e+00 4.747412258599999824e+00 8.598312139599999071e+00
