SYSTEM is ZnO Slabs with adsorbate
1.0
0.000000000000000000e+00 0.000000000000000000e+00 1.061364078519999943e+01
-3.289103031199999805e+00 5.696893561199999567e+00 0.000000000000000000e+00
2.157820606239999961e+01 0.000000000000000000e+00 0.000000000000000000e+00
Zn O S N
4 4 4 4
Cartesian
1.644553184999999917e+00 9.494813079999999683e-01 2.650501966000000209e+00
1.644553184999999917e+00 9.494813079999999683e-01 7.957322358599999923e+00
1.669400000015031083e-06 3.797928088599999974e+00 2.650501966000000209e+00
1.669400000015031083e-06 3.797928088599999974e+00 7.957322358599999923e+00
0.000000000000000000e+00 1.898965478000000040e+00 3.291491746999999801e+00
0.000000000000000000e+00 1.898965478000000040e+00 8.598312139599999071e+00
-1.644551515599999902e+00 4.747412258599999824e+00 3.291491746999999801e+00
-1.644551515599999902e+00 4.747412258599999824e+00 8.598312139599999071e+00
2.644551515599999902e+00 1.500000000000000000e+00 2.500000000000000000e+00
2.644551515599999902e+00 1.500000000000000000e+00 7.806820392599999714e+00
1.000000000000000000e+00 4.348446780599999784e+00 2.500000000000000000e+00
1.000000000000000000e+00 4.348446780599999784e+00 7.806820392599999714e+00
-1.000000000000000000e+00 1.500000000000000000e+00 2.500000000000000000e+00
-1.000000000000000000e+00 1.500000000000000000e+00 7.806820392599999714e+00
-2.644551515599999902e+00 4.348446780599999784e+00 2.500000000000000000e+00
-2.644551515599999902e+00 4.348446780599999784e+00 7.806820392599999714e+00
