SYSTEM is ZnO with adsorbate
1.0
10 5 4
13 6 12
2 5 4
Zn  Zn  O  O  
8  4  4  8  
Cartesian
1.644553184999999917e+00 9.494813079999999683e-01 2.650501966000000209e+00
1.644553184999999917e+00 9.494813079999999683e-01 7.957322358599999923e+00
1.644553184999999917e+00 3.797928088599999974e+00 2.650501966000000209e+00
1.644553184999999917e+00 3.797928088599999974e+00 7.957322358599999923e+00
4.933656216199999278e+00 -6.950702075999999341e-01 2.650501966000000209e+00
4.933656216199999278e+00 -6.950702075999999341e-01 7.957322358599999923e+00
4.933656216199999278e+00 2.153376573000000072e+00 2.650501966000000209e+00
4.933656216199999278e+00 2.153376573000000072e+00 7.957322358599999923e+00
0.000000000000000000e+00 1.898965478000000040e+00 5.303912162999999680e+00
0.000000000000000000e+00 4.747412258599999824e+00 5.303912162999999680e+00
3.289103031199999805e+00 2.544139624000001376e-01 5.303912162999999680e+00
3.289103031199999805e+00 3.102860742999999921e+00 5.303912162999999680e+00
-1.644553184999999917e+00 9.494813079999999683e-01 5.944901883600000048e+00
-1.644553184999999917e+00 3.797928088599999974e+00 5.944901883600000048e+00
1.644549846199999887e+00 -6.950702075999999341e-01 5.944901883600000048e+00
1.644549846199999887e+00 2.153376573000000072e+00 5.944901883600000048e+00
0.000000000000000000e+00 1.898965478000000040e+00 3.291491746999999801e+00
0.000000000000000000e+00 1.898965478000000040e+00 8.598312139599999071e+00
0.000000000000000000e+00 4.747412258599999824e+00 3.291491746999999801e+00
0.000000000000000000e+00 4.747412258599999824e+00 8.598312139599999071e+00
3.289103031199999805e+00 2.544139624000001376e-01 3.291491746999999801e+00
3.289103031199999805e+00 2.544139624000001376e-01 8.598312139599999071e+00
3.289103031199999805e+00 3.102860742999999921e+00 3.291491746999999801e+00
3.289103031199999805e+00 3.102860742999999921e+00 8.598312139599999071e+00
