SYSTEM is ZnO Slabs
1.0
6.578206062399999610e+00 0.000000000000000000e+00 0.000000000000000000e+00
-3.289103031199999805e+00 5.696893561199999567e+00 0.000000000000000000e+00
0.000000000000000000e+00 0.000000000000000000e+00 3.092046117780000358e+01
Zn O
12 12
Cartesian
1.644553184999999917e+00 9.494813079999999683e-01 2.650501966000000209e+00
4.933656216199999278e+00 9.494813079999999683e-01 2.650501966000000209e+00
1.669400000015031083e-06 3.797928088599999974e+00 2.650501966000000209e+00
3.289104700599999820e+00 3.797928088599999974e+00 2.650501966000000209e+00
1.644553184999999917e+00 9.494813079999999683e-01 7.957322358599999923e+00
4.933656216199999278e+00 9.494813079999999683e-01 7.957322358599999923e+00
1.669400000015031083e-06 3.797928088599999974e+00 7.957322358599999923e+00
3.289104700599999820e+00 3.797928088599999974e+00 7.957322358599999923e+00
0.000000000000000000e+00 1.898965478000000040e+00 5.303912162999999680e+00
3.289103031199999805e+00 1.898965478000000040e+00 5.303912162999999680e+00
-1.644551515599999902e+00 4.747412258599999824e+00 5.303912162999999680e+00
1.644551515599999902e+00 4.747412258599999824e+00 5.303912162999999680e+00
-1.644553184999999917e+00 9.494813079999999683e-01 5.944901883600000048e+00
1.644549846199999887e+00 9.494813079999999683e-01 5.944901883600000048e+00
-3.289104700599999820e+00 3.797928088599999974e+00 5.944901883600000048e+00
-1.669400000015031083e-06 3.797928088599999974e+00 5.944901883600000048e+00
0.000000000000000000e+00 1.898965478000000040e+00 3.291491746999999801e+00
3.289103031199999805e+00 1.898965478000000040e+00 3.291491746999999801e+00
-1.644551515599999902e+00 4.747412258599999824e+00 3.291491746999999801e+00
1.644551515599999902e+00 4.747412258599999824e+00 3.291491746999999801e+00
0.000000000000000000e+00 1.898965478000000040e+00 8.598312139599999071e+00
3.289103031199999805e+00 1.898965478000000040e+00 8.598312139599999071e+00
-1.644551515599999902e+00 4.747412258599999824e+00 8.598312139599999071e+00
1.644551515599999902e+00 4.747412258599999824e+00 8.598312139599999071e+00
