SYSTEM is ZnO Slabs with adsorbate
1.0
6.578206062399999610e+00 0.000000000000000000e+00 0.000000000000000000e+00
-3.289103031199999805e+00 5.696893561199999567e+00 0.000000000000000000e+00
0.000000000000000000e+00 0.000000000000000000e+00 2.561364078520000120e+01
Zn O S N
4 4 4 4
Cartesian
1.644553184999999917e+00 9.494813079999999683e-01 2.650501966000000209e+00
4.933656216199999278e+00 9.494813079999999683e-01 2.650501966000000209e+00
1.669400000015031083e-06 3.797928088599999974e+00 2.650501966000000209e+00
3.289104700599999820e+00 3.797928088599999974e+00 2.650501966000000209e+00
0.000000000000000000e+00 1.898965478000000040e+00 3.291491746999999801e+00
3.289103031199999805e+00 1.898965478000000040e+00 3.291491746999999801e+00
-1.644551515599999902e+00 4.747412258599999824e+00 3.291491746999999801e+00
1.644551515599999902e+00 4.747412258599999824e+00 3.291491746999999801e+00
-1.644553184999999917e+00 9.494813079999999683e-01 4.791491687299999747e+00
1.644549846199999887e+00 9.494813079999999683e-01 4.791491687299999747e+00
-3.289104700599999820e+00 3.797928088599999974e+00 4.791491687299999747e+00
-1.669400000015031083e-06 3.797928088599999974e+00 4.791491687299999747e+00
1.644553184999999917e+00 9.494813079999999683e-01 1.150501966000000209e+00
4.933656216199999278e+00 9.494813079999999683e-01 1.150501966000000209e+00
1.669400000015031083e-06 3.797928088599999974e+00 1.150501966000000209e+00
3.289104700599999820e+00 3.797928088599999974e+00 1.150501966000000209e+00
